NAME: Taillard-150C
BEST_KNOWN: 2341.84
COMMENT: 2341.840000
DIMENSION: 151
CAPACITY: 2021
EDGE_WEIGHT_FORMAT: FUNCTION
EDGE_WEIGHT_TYPE: EXACT_2D
NODE_COORD_SECTION
1 0.00000 0.00000
2 -1.00000 -4.00000
3 3.00000 0.00000
4 -1.00000 6.00000
5 3.00000 0.00000
6 6.00000 -3.00000
7 -5.00000 -1.00000
8 -2.00000 0.00000
9 0.00000 -2.00000
10 4.00000 1.00000
11 3.00000 -4.00000
12 -1.00000 -4.00000
13 4.00000 -4.00000
14 -3.00000 1.00000
15 -1.00000 3.00000
16 6.00000 2.00000
17 -19.00000 109.00000
18 -14.00000 115.00000
19 -21.00000 111.00000
20 -19.00000 107.00000
21 -28.00000 114.00000
22 -26.00000 108.00000
23 -27.00000 107.00000
24 -17.00000 109.00000
25 -13.00000 114.00000
26 -25.00000 116.00000
27 -13.00000 111.00000
28 -24.00000 108.00000
29 -13.00000 117.00000
30 -28.00000 115.00000
31 -27.00000 105.00000
32 -15.00000 115.00000
33 -24.00000 104.00000
34 -26.00000 104.00000
35 -13.00000 114.00000
36 -15.00000 117.00000
37 -14.00000 5.00000
38 -30.00000 18.00000
39 -20.00000 23.00000
40 -19.00000 15.00000
41 -13.00000 13.00000
42 -11.00000 17.00000
43 -27.00000 17.00000
44 -33.00000 10.00000
45 -29.00000 13.00000
46 -13.00000 25.00000
47 -16.00000 19.00000
48 -18.00000 26.00000
49 -24.00000 8.00000
50 -31.00000 20.00000
51 -27.00000 9.00000
52 -20.00000 14.00000
53 -17.00000 16.00000
54 -32.00000 4.00000
55 -31.00000 22.00000
56 2.00000 -108.00000
57 1.00000 -122.00000
58 -10.00000 -125.00000
59 -1.00000 -132.00000
60 -13.00000 -111.00000
61 -16.00000 -126.00000
62 2.00000 -127.00000
63 -14.00000 -122.00000
64 -11.00000 -113.00000
65 -84.00000 -43.00000
66 -97.00000 -27.00000
67 -102.00000 -58.00000
68 -88.00000 -43.00000
69 0.00000 -14.00000
70 10.00000 -16.00000
71 -1.00000 -13.00000
72 4.00000 -4.00000
73 10.00000 -5.00000
74 3.00000 -15.00000
75 4.00000 -8.00000
76 13.00000 -7.00000
77 10.00000 -3.00000
78 9.00000 -4.00000
79 -88.00000 50.00000
80 -105.00000 53.00000
81 -98.00000 51.00000
82 -102.00000 61.00000
83 -93.00000 56.00000
84 -97.00000 51.00000
85 -107.00000 57.00000
86 -30.00000 3.00000
87 -27.00000 5.00000
88 -25.00000 -1.00000
89 -31.00000 2.00000
90 -25.00000 4.00000
91 -30.00000 4.00000
92 -21.00000 1.00000
93 -22.00000 3.00000
94 -26.00000 3.00000
95 -27.00000 6.00000
96 -22.00000 5.00000
97 -30.00000 9.00000
98 -29.00000 0.00000
99 -29.00000 0.00000
100 19.00000 1.00000
101 8.00000 6.00000
102 15.00000 0.00000
103 19.00000 1.00000
104 12.00000 -1.00000
105 12.00000 6.00000
106 14.00000 0.00000
107 11.00000 6.00000
108 7.00000 7.00000
109 14.00000 -2.00000
110 11.00000 7.00000
111 14.00000 4.00000
112 19.00000 7.00000
113 30.00000 34.00000
114 29.00000 28.00000
115 35.00000 26.00000
116 24.00000 24.00000
117 105.00000 19.00000
118 109.00000 35.00000
119 125.00000 22.00000
120 115.00000 9.00000
121 129.00000 14.00000
122 121.00000 11.00000
123 115.00000 14.00000
124 126.00000 15.00000
125 134.00000 18.00000
126 120.00000 25.00000
127 14.00000 62.00000
128 24.00000 77.00000
129 22.00000 69.00000
130 26.00000 76.00000
131 28.00000 59.00000
132 12.00000 67.00000
133 24.00000 60.00000
134 21.00000 77.00000
135 20.00000 66.00000
136 10.00000 73.00000
137 9.00000 65.00000
138 4.00000 57.00000
139 1.00000 61.00000
140 2.00000 67.00000
141 0.00000 68.00000
142 -8.00000 63.00000
143 -7.00000 57.00000
144 4.00000 59.00000
145 -29.00000 -39.00000
146 -23.00000 -43.00000
147 -19.00000 -47.00000
148 -26.00000 -46.00000
149 -22.00000 -48.00000
150 -21.00000 -37.00000
151 -29.00000 -46.00000
DEMAND_SECTION
1 0
2 1066
3 841
4 74
5 687
6 175
7 183
8 124
9 4
10 81
11 56
12 29
13 23
14 4
15 9
16 7
17 181
18 54
19 884
20 822
21 637
22 59
23 140
24 531
25 58
26 15
27 11
28 185
29 159
30 285
31 4
32 10
33 3
34 4
35 11
36 45
37 4
38 225
39 286
40 262
41 4
42 391
43 54
44 518
45 815
46 25
47 29
48 18
49 588
50 68
51 480
52 5
53 16
54 34
55 5
56 9
57 22
58 120
59 152
60 21
61 44
62 676
63 17
64 764
65 13
66 6
67 718
68 52
69 11
70 93
71 398
72 48
73 37
74 3
75 8
76 406
77 1086
78 3
79 52
80 88
81 28
82 686
83 25
84 101
85 4
86 15
87 445
88 4
89 593
90 327
91 92
92 21
93 12
94 44
95 773
96 4
97 14
98 783
99 3
100 500
101 390
102 64
103 90
104 8
105 931
106 496
107 19
108 325
109 56
110 20
111 338
112 5
113 17
114 222
115 6
116 4
117 8
118 164
119 96
120 6
121 630
122 4
123 115
124 645
125 187
126 260
127 5
128 9
129 9
130 4
131 17
132 167
133 1026
134 25
135 104
136 7
137 48
138 153
139 30
140 161
141 3
142 12
143 4
144 55
145 11
146 3
147 14
148 408
149 49
150 4
151 5
DEPOT_SECTION
1
-1
EOF
